Version identifier: 22.1.1.0 | 2022-11-28 | 9160aff4d
CPXPARAM_ClockType                               1
CPXPARAM_Read_DataCheck                          1
CPXPARAM_Threads                                 1
CPXPARAM_TimeLimit                               7200
CPXPARAM_MIP_Tolerances_AbsMIPGap                0
CPXPARAM_MIP_Tolerances_MIPGap                   0
CPXPARAM_MIP_Tolerances_Integrality              0
Found incumbent of value 0.000000 after 0.00 sec. (2.31 ticks)
Tried aggregator 2 times.
MIP Presolve eliminated 13296 rows and 60 columns.
MIP Presolve modified 1218 coefficients.
Aggregator did 10 substitutions.
Reduced MIP has 9081 rows, 7850 columns, and 44994 nonzeros.
Reduced MIP has 7850 binaries, 0 generals, 0 SOSs, and 0 indicators.
Presolve time = 0.07 sec. (42.82 ticks)
Probing time = 0.02 sec. (5.65 ticks)
Tried aggregator 1 time.
Detecting symmetries...
Reduced MIP has 9081 rows, 7850 columns, and 44994 nonzeros.
Reduced MIP has 7850 binaries, 0 generals, 0 SOSs, and 0 indicators.
Presolve time = 0.04 sec. (28.50 ticks)
Probing time = 0.01 sec. (5.41 ticks)
Clique table members: 24671.
MIP emphasis: balance optimality and feasibility.
MIP search method: dynamic search.
Parallel mode: none, using 1 thread.
Root relaxation solution time = 2.61 sec. (1943.92 ticks)

        Nodes                                         Cuts/
   Node  Left     Objective  IInf  Best Integer    Best Bound    ItCnt     Gap

*     0+    0                            0.0000    43230.0000              --- 
      0     0     3795.0000   975        0.0000     3795.0000     7933     --- 
*     0+    0                         3795.0000     3795.0000             0.00%
      0     0        cutoff           3795.0000     3795.0000     7933    0.00%
Elapsed time = 9.55 sec. (6042.99 ticks, tree = 0.01 MB, solutions = 2)

Root node processing (before b&c):
  Real time             =    9.55 sec. (6043.33 ticks)
Sequential b&c:
  Real time             =    0.00 sec. (0.00 ticks)
                          ------------
Total (root+branch&cut) =    9.55 sec. (6043.33 ticks)
Solution is feasible.

---------------------
@@@ MIP_optimal
>>> Benchmark mc2024_track1_006.cnf k 10 OPT 3795 TimeCost 12.292867660522461 TimeSolve 9.627811670303345 TimeRead 0.004500865936279297 TimeTrans 2.660555124282837
